p cnf 10 27
-3 6 0
1 2 -3 -2 0
8 9 -7 7 0
3 -5 0
-3 5 -2 0
-5 0
4 0
7 0
-7 -1 0
-8 -7 -10 0
8 0
-3 5 0
-8 10 -1 7 0
4 5 -10 0
1 0
-8 1 -3 -9 0
10 0
-6 0
1 0
8 4 -10 0
-3 -1 -10 0
-1 0
3 4 5 -10 0
1 10 -1 -2 0
-5 -10 0
10 4 6 0
8 9 -2 -9 0
